computational_data/solutions/ER_n30_p035_s1.sol
Optimal - objective value 7.00000000
     21 r_21                        1                       1
     22 r_22                        1                       1
     23 r_23                        1                       1
     26 r_26                        1                       1
     43 b_13                        1                       1
     50 b_20                        1                       1
     59 b_29                        1                       1
